p cnf 150 450
1 -150 -131 0
1 -150 -127 0
1 -150 90 0
1 -149 -122 0
1 -149 -110 0
1 -149 39 0
1 -148 -140 0
1 -148 -67 0
1 -148 2 0
1 -147 -88 0
1 -147 -74 0
1 -147 55 0
1 -146 -93 0
1 -146 10 0
1 -146 65 0
1 -145 -66 0
1 -145 -32 0
1 -145 46 0
1 -144 -59 0
1 -144 57 0
1 -144 136 0
1 -143 24 0
1 -143 131 0
1 -143 141 0
1 -142 -36 0
1 -142 118 0
1 -142 148 0
1 -141 -114 0
1 -141 -75 0
1 -141 59 0
1 -140 27 0
1 -140 59 0
1 -139 -81 0
1 -139 68 0
1 -139 104 0
1 -138 -68 0
1 -138 11 0
1 -138 42 0
1 -137 -77 0
1 -137 -17 0
1 -137 113 0
1 -136 -112 0
1 -136 30 0
1 -136 73 0
1 -135 -49 0
1 -135 -40 0
1 -135 45 0
1 -134 -48 0
1 -134 88 0
1 -134 121 0
1 -133 -93 0
1 -133 -76 0
1 -133 93 0
1 -132 -122 0
1 -132 -97 0
1 -132 -12 0
1 -131 95 0
1 -131 119 0
1 -130 -127 0
1 -130 -123 0
1 -130 142 0
1 -129 -126 0
1 -129 -9 0
1 -129 71 0
1 -128 -56 0
1 -128 13 0
1 -128 48 0
1 -127 98 0
1 -126 -29 0
1 -126 -23 0
1 -125 -112 0
1 -125 -107 0
1 -125 128 0
1 -124 -18 0
1 -124 68 0
1 -124 81 0
1 -123 44 0
1 -123 70 0
1 -122 -70 0
1 -121 -71 0
1 -121 -41 0
1 -121 27 0
1 -120 -109 0
1 -120 -95 0
1 -120 -41 0
1 -119 -55 0
1 -119 -54 0
1 -119 93 0
1 -118 -8 0
1 -118 8 0
1 -118 114 0
1 -117 -52 0
1 -117 40 0
1 -117 75 0
1 -116 -81 0
1 -116 -38 0
1 -116 87 0
1 -115 -114 0
1 -115 -106 0
1 -115 -1 0
1 -114 129 0
1 -113 28 0
1 -113 34 0
1 -113 53 0
1 -112 71 0
1 -111 -25 0
1 -111 10 0
1 -111 133 0
1 -110 -89 0
1 -110 -6 0
1 -109 -28 0
1 -109 25 0
1 -108 -70 0
1 -108 -11 0
1 -108 9 0
1 -107 133 0
1 -107 145 0
1 -106 63 0
1 -106 130 0
1 -105 57 0
1 -105 118 0
1 -105 149 0
1 -104 -69 0
1 -104 9 0
1 -104 33 0
1 -103 30 0
1 -103 47 0
1 -103 86 0
1 -102 -67 0
1 -102 107 0
1 -102 114 0
1 -101 -40 0
1 -101 10 0
1 -101 99 0
1 -100 40 0
1 -100 76 0
1 -100 84 0
1 -99 -21 0
1 -99 21 0
1 -99 140 0
1 -98 -46 0
1 -98 22 0
1 -98 44 0
1 -97 8 0
1 -97 50 0
1 -96 -37 0
1 -96 134 0
1 -96 139 0
1 -95 104 0
1 -95 137 0
1 -94 121 0
1 -94 131 0
1 -94 143 0
1 -93 -3 0
1 -92 -74 0
1 -92 -6 0
1 -92 103 0
1 -91 -13 0
1 -91 -4 0
1 -91 79 0
1 -90 -39 0
1 -90 99 0
1 -90 105 0
1 -89 92 0
1 -89 95 0
1 -88 -71 0
1 -88 -54 0
1 -87 -29 0
1 -87 47 0
1 -87 90 0
1 -86 -60 0
1 -86 109 0
1 -86 150 0
1 -85 -71 0
1 -85 -51 0
1 -85 -35 0
1 -84 -54 0
1 -84 -38 0
1 -84 82 0
1 -83 5 0
1 -83 56 0
1 -83 123 0
1 -82 -22 0
1 -82 103 0
1 -82 120 0
1 -81 -69 0
1 -80 -78 0
1 -80 -77 0
1 -80 74 0
1 -79 29 0
1 -79 99 0
1 -79 105 0
1 -78 114 0
1 -78 123 0
1 -77 113 0
1 -76 -7 0
1 -76 80 0
1 -75 -1 0
1 -75 132 0
1 -74 -12 0
1 -73 -69 0
1 -73 -42 0
1 -73 13 0
1 -72 -16 0
1 -72 59 0
1 -72 136 0
1 -70 87 0
1 -68 107 0
1 -68 122 0
1 -67 72 0
1 -66 -34 0
1 -66 12 0
1 -65 -35 0
1 -65 -32 0
1 -65 -8 0
1 -64 -59 0
1 -64 108 0
1 -64 125 0
1 -63 -50 0
1 -63 -37 0
1 -63 70 0
1 -62 -3 0
1 -62 17 0
1 -62 50 0
1 -61 88 0
1 -61 96 0
1 -61 112 0
1 -60 -28 0
1 -60 89 0
1 -59 45 0
1 -58 3 0
1 -58 20 0
1 -58 49 0
1 -57 16 0
1 -57 56 0
1 -57 137 0
1 -56 57 0
1 -56 124 0
1 -55 -1 0
1 -55 142 0
1 -53 -31 0
1 -53 74 0
1 -53 85 0
1 -52 -12 0
1 -52 110 0
1 -51 41 0
1 -51 116 0
1 -50 -48 0
1 -50 148 0
1 -49 72 0
1 -49 116 0
1 -48 78 0
1 -47 -5 0
1 -47 13 0
1 -47 41 0
1 -46 -24 0
1 -46 110 0
1 -45 -38 0
1 -45 -27 0
1 -45 14 0
1 -44 35 0
1 -44 43 0
1 -44 101 0
1 -43 48 0
1 -43 58 0
1 -43 140 0
1 -42 62 0
1 -42 132 0
1 -41 60 0
1 -40 60 0
1 -39 6 0
1 -39 31 0
1 -37 108 0
1 -36 14 0
1 -36 122 0
1 -35 22 0
1 -34 -30 0
1 -34 124 0
1 -33 55 0
1 -33 62 0
1 -33 117 0
1 -32 134 0
1 -31 3 0
1 -31 58 0
1 -30 51 0
1 -30 129 0
1 -29 145 0
1 -28 -20 0
1 -27 52 0
1 -27 95 0
1 -26 -14 0
1 -26 1 0
1 -26 64 0
1 -25 -18 0
1 -25 -3 0
1 -24 36 0
1 -24 110 0
1 -23 134 0
1 -23 144 0
1 -22 79 0
1 -22 97 0
1 -21 34 0
1 -21 94 0
1 -20 83 0
1 -20 112 0
1 -19 12 0
1 -19 25 0
1 -19 137 0
1 -18 51 0
1 -17 29 0
1 -17 141 0
1 -16 4 0
1 -16 62 0
1 -15 65 0
1 -15 68 0
1 -15 69 0
1 -14 85 0
1 -14 107 0
1 -13 14 0
1 -13 97 0
1 -11 15 0
1 -11 53 0
1 -10 3 0
1 -10 21 0
1 -10 105 0
1 -9 143 0
1 -9 149 0
1 -8 96 0
1 -7 1 0
1 -7 93 0
1 -6 146 0
1 -5 61 0
1 -5 64 0
1 -4 84 0
1 -4 117 0
1 -2 51 0
1 -2 94 0
1 -2 145 0
1 1 118 0
1 2 101 0
1 2 124 0
1 4 46 0
1 4 140 0
1 5 73 0
1 5 101 0
1 6 15 0
1 6 46 0
1 7 43 0
1 7 52 0
1 7 143 0
1 8 53 0
1 9 63 0
1 11 100 0
1 11 116 0
1 12 82 0
1 15 91 0
1 16 37 0
1 16 83 0
1 17 67 0
1 17 115 0
1 18 109 0
1 18 127 0
1 18 144 0
1 19 29 0
1 19 37 0
1 19 147 0
1 20 126 0
1 20 127 0
1 21 111 0
1 22 38 0
1 23 35 0
1 23 106 0
1 23 142 0
1 24 82 0
1 24 135 0
1 25 133 0
1 26 34 0
1 26 67 0
1 26 81 0
1 27 54 0
1 28 66 0
1 28 111 0
1 30 36 0
1 31 108 0
1 31 117 0
1 32 37 0
1 32 48 0
1 32 146 0
1 33 45 0
1 33 147 0
1 35 126 0
1 36 42 0
1 38 127 0
1 38 149 0
1 39 65 0
1 39 74 0
1 40 72 0
1 41 130 0
1 42 80 0
1 43 77 0
1 44 128 0
1 47 128 0
1 49 102 0
1 49 106 0
1 50 102 0
1 52 73 0
1 54 71 0
1 54 122 0
1 55 123 0
1 56 76 0
1 58 79 0
1 60 113 0
1 61 81 0
1 61 120 0
1 63 88 0
1 64 125 0
1 66 69 0
1 66 138 0
1 67 120 0
1 69 135 0
1 70 132 0
1 75 89 0
1 75 135 0
1 76 147 0
1 77 92 0
1 77 139 0
1 78 89 0
1 78 97 0
1 80 86 0
1 83 121 0
1 84 144 0
1 85 126 0
1 86 115 0
1 87 92 0
1 90 106 0
1 91 129 0
1 91 150 0
1 94 112 0
1 96 100 0
1 98 115 0
1 98 130 0
1 100 131 0
1 102 138 0
1 103 111 0
1 104 119 0
1 109 136 0
1 119 150 0
1 125 148 0
1 138 141 0
1 139 146 0
